Copyright (C) 2013-2015, Filipe Brandao
Build (method = -2)
  #dp: 290
  Step-3' Graph: 25 vertices and 109 arcs (0.00s)
  Step-4' Graph: 15 vertices and 89 arcs (0.00s)
  #V4/#V3 = 0.60
  #A4/#A3 = 0.82
Ready! (0.00s)
Optimize a model with 48 rows, 90 columns and 246 nonzeros
Found heuristic solution: objective 35
Presolve removed 24 rows and 24 columns
Presolve time: 0.00s
Presolved: 24 rows, 66 columns, 168 nonzeros
Variable types: 0 continuous, 66 integer (23 binary)
Optimize a model with 24 rows, 66 columns and 168 nonzeros
Presolved: 24 rows, 66 columns, 168 nonzeros

Root barrier log...

Ordering time: 0.00s

Barrier statistics:
 AA' NZ     : 7.000e+01
 Factor NZ  : 2.300e+02
 Factor Ops : 2.800e+03 (less than 1 second per iteration)
 Threads    : 1

                  Objective                Residual
Iter       Primal          Dual         Primal    Dual     Compl     Time
   0   1.94046501e+02 -1.11462087e+02  5.34e+01 1.68e-01  5.52e+00     0s
   1   5.38190928e+01 -1.88297923e+01  3.43e+00 2.78e-16  6.62e-01     0s
   2   3.62093971e+01  2.23739221e+01  9.53e-03 2.36e-16  1.00e-01     0s
   3   3.15564856e+01  2.58511323e+01  1.55e-03 2.36e-16  4.14e-02     0s
   4   3.01808425e+01  2.95561484e+01  1.64e-04 2.22e-16  4.53e-03     0s
   5   3.00025868e+01  2.99979171e+01  7.95e-08 1.34e-16  3.38e-05     0s
   6   3.00000000e+01  3.00000000e+01  1.71e-13 1.11e-16  6.58e-11     0s

Barrier solved model in 6 iterations and 0.00 seconds
Optimal objective 3.00000000e+01


Root relaxation: objective 3.000000e+01, 26 iterations, 0.00 seconds

    Nodes    |    Current Node    |     Objective Bounds      |     Work
 Expl Unexpl |  Obj  Depth IntInf | Incumbent    BestBd   Gap | It/Node Time

*    0     0               0      30.0000000   30.00000  0.00%     -    0s

Explored 0 nodes (26 simplex iterations) in 0.00 seconds
Thread count was 1 (of 4 available processors)

Optimal solution found (tolerance 0.00e+00)
Best objective 3.000000000000e+01, best bound 3.000000000000e+01, gap 0.0%
Preprocessing time: 0.00 seconds
Gurobi run time: 0.00 seconds
Total run time: 0.00 seconds
Objective: 30
Solution:
1 x [i=1]
1 x [i=2]
1 x [i=3]
1 x [i=4]
2 x [i=5]
1 x [i=6]
1 x [i=7, i=33]
1 x [i=8, i=33]
1 x [i=9, i=30]
1 x [i=9, i=31]
1 x [i=9, i=32]
3 x [i=10]
1 x [i=10, i=33]
1 x [i=11, i=29]
2 x [i=12, i=28]
1 x [i=13, i=26]
1 x [i=14, i=24]
1 x [i=15, i=23]
1 x [i=16, i=26]
2 x [i=17, i=21]
1 x [i=18, i=20]
1 x [i=18, i=22]
1 x [i=19, i=26]
1 x [i=24, i=27]
1 x [i=25, i=29]
